min: c;

c = 4.29878399363118 * u3_t10_h0 + 3.30164777075638 * u3_t10_h1 + 3.71167148476875 * u3_t4_h2 + 3.71167148476875 * u3_t10_h2 + 2.85557507785144 * u3_t4_h3 + 2.85557507785144 * u3_t10_h3 + 3.6284778910875 * u3_t4_h4 + 3.6284778910875 * u3_t10_h4 + 3.25955933157492 * u3_t4_h5 + 3.25955933157492 * u3_t10_h5 + 3.65580697351066 * u3_t4_h6 + 3.65580697351066 * u3_t10_h6 + 4.03997505743875 * u3_t4_h7 + 4.03997505743875 * u3_t9_h7 + 4.03997505743875 * u3_t10_h7 + 5.78200708237994 * u3_t4_h8 + 5.78200708237994 * u3_t9_h8 + 4.5195735669219 * u3_t4_h9 + 4.5195735669219 * u3_t9_h9 + 5.87467272789969 * u3_t4_h10 + 5.87467272789969 * u3_t6_h10 + 5.87467272789969 * u3_t9_h10 + 4.23421487277965 * u3_t3_h11 + 4.23421487277965 * u3_t4_h11 + 4.23421487277965 * u3_t6_h11 + 4.23421487277965 * u3_t9_h11 + 5.78214568118539 * u3_t3_h12 + 5.78214568118539 * u3_t4_h12 + 5.78214568118539 * u3_t6_h12 + 5.78214568118539 * u3_t9_h12 + 4.08040834897188 * u3_t3_h13 + 4.08040834897188 * u3_t4_h13 + 4.08040834897188 * u3_t5_h13 + 4.08040834897188 * u3_t6_h13 + 4.08040834897188 * u3_t9_h13 + 5.3294951095193 * u3_t3_h14 + 5.3294951095193 * u3_t4_h14 + 5.3294951095193 * u3_t5_h14 + 5.3294951095193 * u3_t6_h14 + 5.3294951095193 * u3_t9_h14 + 6.63399989722173 * u3_t2_h15 + 6.63399989722173 * u3_t3_h15 + 6.63399989722173 * u3_t4_h15 + 6.63399989722173 * u3_t5_h15 + 6.63399989722173 * u3_t6_h15 + 6.63399989722173 * u3_t9_h15 + 5.95938014570468 * u3_t2_h16 + 5.95938014570468 * u3_t4_h16 + 5.95938014570468 * u3_t5_h16 + 5.95938014570468 * u3_t6_h16 + 5.95938014570468 * u3_t9_h16 + 6.67148994651973 * u3_t2_h17 + 6.67148994651973 * u3_t4_h17 + 6.67148994651973 * u3_t6_h17 + 6.67148994651973 * u3_t9_h17 + 6.89190265563253 * u3_t2_h18 + 6.89190265563253 * u3_t6_h18 + 6.89190265563253 * u3_t9_h18 + 5.7594990002889 * u3_t2_h19 + 5.7594990002889 * u3_t9_h19 + 5.67961350386613 * u3_t1_h20 + 5.67961350386613 * u3_t2_h20 + 5.67961350386613 * u3_t8_h20 + 5.67961350386613 * u3_t9_h20 + 5.37976538528396 * u3_t1_h21 + 5.37976538528396 * u3_t2_h21 + 5.37976538528396 * u3_t7_h21 + 5.37976538528396 * u3_t8_h21 + 5.37976538528396 * u3_t9_h21 + 6.00384698407837 * u3_t1_h22 + 6.00384698407837 * u3_t7_h22 + 6.00384698407837 * u3_t8_h22 + 5.1866562335595 * u3_t1_h23 + 5.1866562335595 * u3_t7_h23 + 5.1866562335595 * u3_t8_h23;
0 <= u3_t1_h20 <= 1;
0 <= u3_t1_h21 <= 1;
0 <= u3_t1_h22 <= 1;
0 <= u3_t1_h23 <= 1;
u3_t1_h20 + u3_t1_h21 + u3_t1_h22 + u3_t1_h23 = 2;
0 <= u3_t2_h15 <= 1;
0 <= u3_t2_h16 <= 1;
0 <= u3_t2_h17 <= 1;
0 <= u3_t2_h18 <= 1;
0 <= u3_t2_h19 <= 1;
0 <= u3_t2_h20 <= 1;
0 <= u3_t2_h21 <= 1;
u3_t2_h15 + u3_t2_h16 + u3_t2_h17 + u3_t2_h18 + u3_t2_h19 + u3_t2_h20 + u3_t2_h21 = 3;
0 <= u3_t3_h11 <= 1;
0 <= u3_t3_h12 <= 1;
0 <= u3_t3_h13 <= 1;
0 <= u3_t3_h14 <= 1;
0 <= u3_t3_h15 <= 1;
u3_t3_h11 + u3_t3_h12 + u3_t3_h13 + u3_t3_h14 + u3_t3_h15 = 2;
0 <= u3_t4_h2 <= 1;
0 <= u3_t4_h3 <= 1;
0 <= u3_t4_h4 <= 1;
0 <= u3_t4_h5 <= 1;
0 <= u3_t4_h6 <= 1;
0 <= u3_t4_h7 <= 1;
0 <= u3_t4_h8 <= 1;
0 <= u3_t4_h9 <= 1;
0 <= u3_t4_h10 <= 1;
0 <= u3_t4_h11 <= 1;
0 <= u3_t4_h12 <= 1;
0 <= u3_t4_h13 <= 1;
0 <= u3_t4_h14 <= 1;
0 <= u3_t4_h15 <= 1;
0 <= u3_t4_h16 <= 1;
0 <= u3_t4_h17 <= 1;
u3_t4_h2 + u3_t4_h3 + u3_t4_h4 + u3_t4_h5 + u3_t4_h6 + u3_t4_h7 + u3_t4_h8 + u3_t4_h9 + u3_t4_h10 + u3_t4_h11 + u3_t4_h12 + u3_t4_h13 + u3_t4_h14 + u3_t4_h15 + u3_t4_h16 + u3_t4_h17 = 3;
0 <= u3_t5_h13 <= 1;
0 <= u3_t5_h14 <= 1;
0 <= u3_t5_h15 <= 1;
0 <= u3_t5_h16 <= 1;
u3_t5_h13 + u3_t5_h14 + u3_t5_h15 + u3_t5_h16 = 2;
0 <= u3_t6_h10 <= 1;
0 <= u3_t6_h11 <= 1;
0 <= u3_t6_h12 <= 1;
0 <= u3_t6_h13 <= 1;
0 <= u3_t6_h14 <= 1;
0 <= u3_t6_h15 <= 1;
0 <= u3_t6_h16 <= 1;
0 <= u3_t6_h17 <= 1;
0 <= u3_t6_h18 <= 1;
u3_t6_h10 + u3_t6_h11 + u3_t6_h12 + u3_t6_h13 + u3_t6_h14 + u3_t6_h15 + u3_t6_h16 + u3_t6_h17 + u3_t6_h18 = 2;
0 <= u3_t7_h21 <= 1;
0 <= u3_t7_h22 <= 1;
0 <= u3_t7_h23 <= 1;
u3_t7_h21 + u3_t7_h22 + u3_t7_h23 = 2;
0 <= u3_t8_h20 <= 1;
0 <= u3_t8_h21 <= 1;
0 <= u3_t8_h22 <= 1;
0 <= u3_t8_h23 <= 1;
u3_t8_h20 + u3_t8_h21 + u3_t8_h22 + u3_t8_h23 = 1;
0 <= u3_t9_h7 <= 1;
0 <= u3_t9_h8 <= 1;
0 <= u3_t9_h9 <= 1;
0 <= u3_t9_h10 <= 1;
0 <= u3_t9_h11 <= 1;
0 <= u3_t9_h12 <= 1;
0 <= u3_t9_h13 <= 1;
0 <= u3_t9_h14 <= 1;
0 <= u3_t9_h15 <= 1;
0 <= u3_t9_h16 <= 1;
0 <= u3_t9_h17 <= 1;
0 <= u3_t9_h18 <= 1;
0 <= u3_t9_h19 <= 1;
0 <= u3_t9_h20 <= 1;
0 <= u3_t9_h21 <= 1;
u3_t9_h7 + u3_t9_h8 + u3_t9_h9 + u3_t9_h10 + u3_t9_h11 + u3_t9_h12 + u3_t9_h13 + u3_t9_h14 + u3_t9_h15 + u3_t9_h16 + u3_t9_h17 + u3_t9_h18 + u3_t9_h19 + u3_t9_h20 + u3_t9_h21 = 2;
0 <= u3_t10_h0 <= 1;
0 <= u3_t10_h1 <= 1;
0 <= u3_t10_h2 <= 1;
0 <= u3_t10_h3 <= 1;
0 <= u3_t10_h4 <= 1;
0 <= u3_t10_h5 <= 1;
0 <= u3_t10_h6 <= 1;
0 <= u3_t10_h7 <= 1;
u3_t10_h0 + u3_t10_h1 + u3_t10_h2 + u3_t10_h3 + u3_t10_h4 + u3_t10_h5 + u3_t10_h6 + u3_t10_h7 = 3;
